<instance format="XCSP3" type="COP">
  <variables>
    <array id="x" size="[40]"> 0 1 </array>
  </variables>
  <constraints>
    <sum>
      <list> x[] </list>
      <coeffs> 26 30 29 4 11 2 25 37 31 29 8 10 11 14 12 20 33 17 23 36 15 3 33 32 5 32 4 24 23 8 14 1 32 29 5 29 29 6 2 33 </coeffs>
      <condition> (le,150) </condition>
    </sum>
  </constraints>
  <objectives>
    <maximize type="sum">
      <list> x[] </list>
      <coeffs> 98 57 89 24 25 51 91 48 18 87 19 73 90 62 41 97 60 29 82 43 87 41 48 98 63 6 4 37 16 48 18 17 91 1 44 73 53 21 10 26 </coeffs>
    </maximize>
  </objectives>
</instance>
